<instance format="XCSP3" type="COP">
  <variables>
    <array id="x" size="[50]"> 0 1 </array>
  </variables>
  <constraints>
    <sum>
      <list> x[] </list>
      <coeffs> 2 33 26 1 4 43 14 21 1 16 22 1 7 22 32 19 50 16 9 10 15 12 33 19 47 41 27 13 30 50 8 45 9 44 29 11 49 12 10 46 41 12 40 44 46 26 46 16 5 11 </coeffs>
      <condition> (le,200) </condition>
    </sum>
  </constraints>
  <objectives>
    <maximize type="sum">
      <list> x[] </list>
      <coeffs> 76 88 24 68 44 56 57 57 68 54 96 87 74 35 54 43 96 82 97 57 29 38 39 6 40 96 37 47 39 62 11 84 45 50 23 60 48 99 77 79 21 86 61 47 82 80 5 59 34 78 </coeffs>
    </maximize>
  </objectives>
</instance>
